1-1 1
1-10 1
1-100 1
1-101 1
1-102 1
1-103 1
1-104 1
1-105 1
1-106 1
1-107 1
1-108 1
1-109 1
1-11 1
1-110 1
1-111 1
1-112 1
1-113 1
1-114 1
1-115 1
1-116 1
1-117 1
1-118 1
1-119 1
1-12 1
1-120 1
1-121 1
1-122 1
1-123 1
1-124 1
1-125 1
1-126 1
1-127 1
1-128 1
1-129 1
1-13 1
1-130 1
1-131 1
1-132 1
1-133 1
1-134 1
1-135 1
1-136 1
1-137 1
1-138 1
1-139 1
1-14 1
1-140 1
1-141 1
1-142 1
1-143 1
1-144 1
1-145 1
1-146 1
1-147 1
1-148 1
1-149 1
1-15 1
1-150 1
1-151 1
1-152 1
1-153 1
1-154 1
1-155 1
1-156 1
1-157 1
1-158 1
1-159 1
1-16 1
1-160 1
1-161 1
1-162 1
1-163 1
1-164 1
1-165 1
1-166 1
1-167 1
1-168 1
1-169 1
1-17 1
1-170 1
1-171 1
1-172 1
1-173 1
1-174 1
1-175 1
1-176 1
1-177 1
1-179 1
1-18 1
1-180 1
1-181 1
1-182 1
1-19 1
1-198 1
1-199 1
1-2 1
1-20 1
1-200 1
1-201 1
1-202 1
1-203 1
1-204 1
1-205 1
1-206 1
1-207 1
1-208 1
1-209 1
1-21 1
1-210 1
1-211 1
1-212 1
1-214 1
1-216 1
1-217 1
1-22 1
1-220 1
1-222 1
1-224 1
1-226 1
1-228 1
1-23 1
1-230 1
1-232 1
1-234 1
1-236 1
1-238 1
1-24 1
1-240 1
1-242 1
1-244 1
1-246 1
1-248 1
1-25 1
1-250 1
1-252 1
1-254 1
1-255 1
1-26 1
1-27 1
1-274 1
1-275 1
1-276 1
1-277 1
1-278 1
1-279 1
1-28 1
1-280 1
1-281 1
1-282 1
1-283 1
1-284 1
1-285 1
1-286 1
1-287 1
1-288 1
1-289 1
1-29 1
1-290 1
1-291 1
1-292 1
1-3 1
1-30 1
1-31 1
1-32 1
1-33 1
1-339 1
1-34 1
1-340 1
1-341 1
1-342 1
1-343 1
1-344 1
1-345 1
1-346 1
1-347 1
1-348 1
1-349 1
1-35 1
1-350 1
1-351 1
1-352 1
1-353 1
1-354 1
1-355 1
1-356 1
1-357 1
1-358 1
1-359 1
1-36 1
1-360 1
1-361 1
1-362 1
1-363 1
1-364 1
1-37 1
1-38 1
1-39 1
1-4 1
1-40 1
1-41 1
1-42 1
1-43 1
1-44 1
1-45 1
1-46 1
1-47 1
1-48 1
1-49 1
1-5 1
1-50 1
1-51 1
1-52 1
1-53 1
1-54 1
1-55 1
1-56 1
1-57 1
1-58 1
1-59 1
1-6 1
1-60 1
1-61 1
1-62 1
1-63 1
1-64 1
1-65 1
1-66 1
1-67 1
1-68 1
1-69 1
1-7 1
1-70 1
1-71 1
1-72 1
1-73 1
1-74 1
1-75 1
1-76 1
1-77 1
1-78 1
1-79 1
1-8 1
1-80 1
1-81 1
1-82 1
1-83 1
1-84 1
1-85 1
1-86 1
1-87 1
1-88 1
1-89 1
1-9 1
1-90 1
1-91 1
1-92 1
1-93 1
1-94 1
1-95 1
1-96 1
1-97 1
1-98 1
1-99 1
105-10584 105
105-10585 105
105-10586 105
105-10587 105
105-10588 105
105-10589 105
105-10590 105
105-10591 105
105-10592 105
105-10593 105
105-10594 105
105-10595 105
105-10596 105
105-10597 105
105-10598 105
105-10599 105
105-10600 105
105-10601 105
105-10602 105
105-10603 105
105-10604 105
105-10605 105
105-10606 105
105-10607 105
105-10608 105
105-10609 105
105-10610 105
105-10611 105
105-10612 105
105-10613 105
105-10614 105
105-10615 105
105-10616 105
105-10617 105
105-10618 105
105-10619 105
105-10620 105
105-10621 105
105-10622 105
105-10623 105
105-10624 105
105-10625 105
105-10626 105
105-10627 105
105-10628 105
105-10629 105
105-10630 105
105-10631 105
105-10632 105
105-10633 105
105-10634 105
105-10635 105
105-10636 105
105-10637 105
105-10638 105
105-10639 105
105-10640 105
105-10641 105
105-10642 105
105-10643 105
105-10644 105
105-10645 105
105-10646 105
105-10647 105
105-10648 105
105-10649 105
105-10650 105
105-10651 105
105-10652 105
105-10653 105
105-10654 105
105-10655 105
105-10656 105
105-10657 105
105-10658 105
105-10659 105
105-10660 105
105-10661 105
105-10662 105
105-10663 105
105-10664 105
105-10665 105
105-10666 105
105-10667 105
105-10668 105
105-10669 105
105-10670 105
105-10671 105
105-10672 105
105-10673 105
105-10674 105
105-10675 105
105-10676 105
105-10677 105
105-10678 105
105-10679 105
105-10680 105
105-10681 105
105-10682 105
105-10683 105
105-10684 105
105-10685 105
105-10686 105
105-10687 105
105-10688 105
105-10689 105
105-10690 105
105-10691 105
105-10692 105
105-10693 105
105-10694 105
105-10695 105
105-10696 105
105-10697 105
105-10698 105
105-10699 105
105-10700 105
105-10701 105
105-10702 105
105-10703 105
105-10704 105
105-10705 105
105-10706 105
105-10707 105
105-10708 105
105-10709 105
105-10710 105
105-10711 105
105-10712 105
105-10713 105
105-10714 105
105-10715 105
105-10716 105
105-10717 105
105-10718 105
105-10719 105
105-10720 105
105-10721 105
105-10722 105
105-10723 105
105-10724 105
105-10725 105
105-10726 105
105-10727 105
105-10728 105
105-10729 105
105-10730 105
105-10731 105
105-10732 105
105-10733 105
105-10734 105
105-10735 105
105-10736 105
105-10737 105
105-10738 105
105-10739 105
105-10740 105
105-10741 105
105-10742 105
105-10743 105
105-10744 105
105-10745 105
105-10746 105
105-10747 105
105-10748 105
105-10749 105
105-10750 105
105-10751 105
105-10752 105
105-10753 105
105-10754 105
105-10755 105
105-10756 105
105-10757 105
105-10758 105
105-10759 105
105-10760 105
105-10761 105
105-10762 105
105-10763 105
105-10764 105
105-10765 105
105-10766 105
105-10767 105
105-10768 105
105-10769 105
105-10770 105
105-10771 105
105-10772 105
105-10773 105
105-10774 105
105-10775 105
105-10776 105
105-10777 105
105-10778 105
105-10779 105
105-10780 105
105-10781 105
105-10782 105
105-10783 105
105-10784 105
105-10785 105
105-10786 105
105-10787 105
105-10788 105
105-10789 105
105-10790 105
105-10791 105
105-10792 105
105-10793 105
105-10794 105
105-10795 105
105-10796 105
105-10797 105
105-10798 105
105-10799 105
105-10800 105
105-10801 105
105-10802 105
105-10803 105
105-10804 105
105-10805 105
105-10806 105
105-10807 105
105-10808 105
105-10809 105
105-10810 105
105-10811 105
105-10812 105
105-10813 105
105-10814 105
105-10815 105
105-10816 105
105-10817 105
105-10818 105
105-10819 105
105-10820 105
105-10821 105
105-10822 105
105-10823 105
105-10824 105
105-10825 105
105-10826 105
105-10827 105
105-10828 105
105-10829 105
105-10830 105
105-10831 105
105-10832 105
105-10833 105
105-10834 105
105-10835 105
105-10836 105
105-10837 105
105-10838 105
105-10839 105
105-10840 105
105-10841 105
105-10842 105
105-10843 105
105-10844 105
105-10845 105
105-10846 105
105-10847 105
105-10848 105
105-10849 105
105-10850 105
105-10851 105
105-10852 105
105-10853 105
106-10854 106
106-10855 106
106-10856 106
106-10857 106
106-10858 106
106-10859 106
106-10860 106
106-10861 106
106-10862 106
106-10863 106
106-10864 106
106-10865 106
106-10866 106
106-10867 106
106-10868 106
106-10869 106
106-10870 106
106-10871 106
106-10872 106
106-10873 106
106-10874 106
106-10875 106
106-10876 106
106-10877 106
106-10878 106
118-11932 118
118-11933 118
118-11934 118
118-11935 118
118-11936 118
118-11937 118
118-11938 118
118-11939 118
118-11940 118
118-11941 118
118-11942 118
118-11943 118
118-11944 118
118-11945 118
118-11946 118
118-11947 118
118-11948 118
118-11949 118
118-11950 118
118-11951 118
118-11952 118
118-11953 118
118-11954 118
118-11955 118
118-11956 118
118-11957 118
118-11958 118
118-11959 118
118-11960 118
118-11961 118
118-11962 118
118-11963 118
118-11964 118
118-11965 118
118-11966 118
118-11967 118
118-11968 118
118-11969 118
118-11970 118
118-11971 118
118-11972 118
118-11973 118
118-11974 118
118-11975 118
118-11976 118
118-11977 118
118-11978 118
118-11979 118
118-11980 118
118-11981 118
118-11982 118
118-11983 118
118-11984 118
118-11985 118
118-11986 118
118-11987 118
118-11988 118
118-11989 118
118-11990 118
118-11991 118
118-11992 118
118-11993 118
118-11994 118
118-11995 118
118-11996 118
118-11997 118
118-11998 118
118-11999 118
118-12000 118
118-12001 118
118-12002 118
118-12003 118
118-12004 118
118-12005 118
118-12006 118
118-12007 118
118-12008 118
118-12009 118
118-12010 118
118-12011 118
118-12012 118
118-12013 118
118-12014 118
118-12015 118
118-12016 118
118-12017 118
118-12018 118
118-12019 118
118-12020 118
118-12021 118
118-12022 118
118-12023 118
118-12024 118
118-12025 118
118-12026 118
118-12027 118
118-12028 118
118-12029 118
118-12030 118
118-12031 118
118-12032 118
118-12033 118
118-12034 118
118-12035 118
118-12036 118
118-12037 118
118-12038 118
118-12039 118
118-12040 118
118-12041 118
118-12042 118
118-12043 118
118-12044 118
118-12045 118
118-12046 118
118-12047 118
118-12048 118
118-12049 118
118-12050 118
118-12051 118
118-12052 118
118-12053 118
118-12054 118
118-12055 118
118-12056 118
118-12057 118
118-12058 118
118-12059 118
118-12060 118
118-12061 118
118-12062 118
118-12063 118
118-12064 118
118-12065 118
118-12066 118
118-12067 118
118-12068 118
118-12069 118
118-12070 118
118-12071 118
118-12072 118
118-12073 118
118-12074 118
118-12075 118
118-12076 118
118-12077 118
118-12078 118
118-12079 118
118-12080 118
118-12081 118
118-12082 118
118-12083 118
118-12084 118
118-12085 118
118-12086 118
118-12087 118
118-12088 118
118-12089 118
118-12090 118
118-12091 118
118-12092 118
118-12093 118
118-12094 118
118-12095 118
118-12096 118
118-12097 118
118-12098 118
118-12099 118
118-12100 118
118-12101 118
118-12102 118
118-12103 118
118-12104 118
118-12105 118
118-12106 118
118-12107 118
118-12108 118
118-12109 118
118-12110 118
118-12111 118
118-12112 118
118-12113 118
118-12114 118
118-12115 118
118-12116 118
118-12117 118
118-12118 118
118-12119 118
118-12120 118
118-12121 118
118-12122 118
118-12123 118
118-12124 118
118-12125 118
118-12126 118
118-12127 118
118-12128 118
118-12129 118
118-12130 118
118-12131 118
118-12132 118
118-12133 118
118-12134 118
118-12135 118
118-12136 118
118-12137 118
118-12138 118
118-12139 118
118-12140 118
118-12141 118
118-12142 118
118-12143 118
118-12144 118
118-12145 118
118-12146 118
118-12147 118
118-12148 118
118-12149 118
118-12150 118
118-12151 118
118-12152 118
118-12153 118
118-12154 118
118-12155 118
118-12156 118
118-12157 118
118-12158 118
118-12159 118
118-12160 118
118-12161 118
118-12162 118
118-12163 118
118-12164 118
118-12165 118
118-12166 118
118-12167 118
118-12168 118
118-12169 118
118-12170 118
118-12171 118
118-12172 118
118-12173 118
118-12174 118
118-12175 118
118-12176 118
118-12177 118
118-12178 118
118-12179 118
118-12180 118
118-12181 118
118-12182 118
118-12183 118
118-12184 118
118-12185 118
118-12186 118
118-12187 118
118-12188 118
118-12189 118
118-12190 118
118-12191 118
118-12192 118
118-12193 118
118-12194 118
119-12195 119
15-1922 15
15-1923 15
15-1924 15
15-1925 15
15-1926 15
15-1927 15
15-1928 15
15-1929 15
15-1930 15
15-1931 15
15-1932 15
15-1933 15
15-1934 15
15-1935 15
15-1936 15
15-1937 15
15-1938 15
15-1939 15
15-1940 15
15-1941 15
15-1942 15
15-1943 15
15-1944 15
15-1945 15
15-1946 15
15-1947 15
15-1948 15
15-1949 15
15-1950 15
15-1951 15
15-1952 15
15-1953 15
15-1954 15
15-1955 15
15-1956 15
15-1957 15
15-1958 15
15-1959 15
15-1960 15
15-1961 15
15-1962 15
15-1963 15
15-1964 15
15-1965 15
15-1966 15
15-1967 15
15-1968 15
15-1969 15
15-1970 15
15-1971 15
15-1972 15
15-1973 15
15-1974 15
15-1975 15
15-1976 15
15-1977 15
15-1978 15
15-1979 15
15-1980 15
15-1981 15
15-1982 15
15-1983 15
15-1984 15
15-1985 15
15-1986 15
15-1987 15
15-1988 15
15-1989 15
15-1990 15
15-1991 15
15-1992 15
15-1993 15
15-1994 15
15-1995 15
15-1996 15
15-1997 15
15-1998 15
15-1999 15
15-2000 15
15-2001 15
15-2002 15
15-2003 15
15-2004 15
15-2005 15
15-2006 15
15-2007 15
15-2008 15
15-2009 15
15-2010 15
15-2011 15
15-2012 15
15-2013 15
15-2014 15
15-2015 15
15-2016 15
15-2017 15
15-2018 15
15-2019 15
15-2020 15
15-2021 15
15-2022 15
15-2023 15
15-2024 15
15-2025 15
15-2026 15
15-2027 15
15-2028 15
15-2029 15
15-2030 15
15-2031 15
15-2032 15
15-2033 15
15-2034 15
15-2035 15
15-2036 15
15-2037 15
15-2038 15
15-2039 15
15-2040 15
15-2041 15
15-2042 15
15-2043 15
15-2044 15
15-2045 15
15-2046 15
15-2047 15
15-2048 15
15-2049 15
15-2050 15
15-2051 15
15-2052 15
15-2053 15
15-2054 15
15-2055 15
15-2056 15
15-2057 15
15-2058 15
15-2059 15
15-2060 15
15-2061 15
15-2062 15
15-2063 15
15-2064 15
15-2065 15
15-2066 15
15-2067 15
15-2068 15
15-2069 15
15-2070 15
15-2071 15
15-2072 15
15-2073 15
15-2074 15
15-2075 15
15-2076 15
15-2077 15
15-2078 15
15-2079 15
15-2080 15
15-2081 15
15-2082 15
15-2083 15
15-2084 15
15-2085 15
15-2086 15
15-2087 15
15-2088 15
15-2089 15
15-2090 15
15-2091 15
15-2092 15
15-2093 15
15-2094 15
15-2095 15
15-2096 15
15-2097 15
15-2098 15
15-2099 15
15-2100 15
15-2101 15
15-2102 15
15-2103 15
18-2391 18
18-2393 18
18-2394 18
18-2395 18
18-2396 18
18-2397 18
18-2398 18
18-2399 18
18-2400 18
18-2401 18
18-2402 18
18-2403 18
18-2404 18
18-2405 18
18-2406 18
18-2407 18
18-2408 18
18-2409 18
18-2410 18
18-2411 18
18-2412 18
18-2413 18
18-2414 18
18-2415 18
18-2416 18
18-2417 18
18-2418 18
18-2419 18
18-2420 18
18-2421 18
18-2422 18
18-2423 18
18-2424 18
18-2425 18
18-2426 18
18-2427 18
18-2428 18
18-2429 18
18-2430 18
18-2431 18
18-2432 18
18-2433 18
18-2434 18
18-2435 18
18-2436 18
18-2437 18
18-2438 18
18-2439 18
18-2440 18
18-2441 18
18-2442 18
18-2443 18
18-2444 18
18-2445 18
18-2446 18
18-2447 18
18-2448 18
18-2449 18
18-2450 18
18-2451 18
18-2452 18
18-2453 18
18-2454 18
18-2455 18
18-2456 18
18-2457 18
18-2458 18
18-2459 18
18-2460 18
18-2461 18
18-2462 18
18-2463 18
18-2464 18
18-2465 18
18-2466 18
18-2467 18
18-2468 18
18-2469 18
18-2470 18
18-2471 18
18-2472 18
18-2473 18
18-2474 18
18-2475 18
18-2476 18
18-2477 18
18-2478 18
18-2479 18
18-2480 18
18-2481 18
18-2482 18
18-2483 18
18-2484 18
18-2485 18
18-2486 18
18-2487 18
18-2488 18
18-2489 18
18-2490 18
18-2491 18
18-2492 18
18-2493 18
18-2494 18
18-2495 18
18-2496 18
18-2497 18
18-2498 18
18-2499 18
18-2500 18
18-2501 18
18-2502 18
18-2503 18
18-2504 18
18-2505 18
18-2506 18
18-2507 18
18-2508 18
18-2509 18
18-2510 18
18-2511 18
18-2512 18
18-2513 18
18-2514 18
18-2515 18
18-2516 18
18-2517 18
18-2518 18
18-2519 18
18-2520 18
18-2521 18
18-2522 18
18-2523 18
18-2524 18
18-2525 18
18-2526 18
18-2527 18
18-2528 18
18-2529 18
18-2530 18
18-2531 18
18-2532 18
18-2533 18
18-2534 18
18-2535 18
18-2536 18
18-2537 18
18-2538 18
18-2539 18
18-2540 18
18-2541 18
18-2542 18
18-2543 18
18-2544 18
18-2545 18
18-2546 18
18-2547 18
18-2548 18
18-2549 18
18-2550 18
18-2551 18
18-2552 18
18-2553 18
18-2554 18
18-2555 18
18-2556 18
18-2557 18
18-2558 18
18-2559 18
18-2560 18
18-2561 18
18-2562 18
18-2563 18
18-2564 18
18-2565 18
18-2566 18
18-2567 18
18-2568 18
18-2569 18
18-2570 18
18-2571 18
18-2572 18
18-2573 18
18-2574 18
18-2575 18
18-2576 18
18-2577 18
18-2578 18
18-2579 18
18-2580 18
18-2581 18
18-2582 18
18-2583 18
18-2584 18
18-2585 18
18-2586 18
18-2587 18
18-2588 18
18-2589 18
18-2590 18
18-2591 18
20-2593 20
20-2594 20
20-2595 20
20-2596 20
22-2866 22
22-2867 22
22-2868 22
22-2869 22
22-2870 22
22-2871 22
22-2872 22
22-2873 22
22-2874 22
22-2875 22
22-2876 22
22-2877 22
22-2878 22
22-2879 22
22-2880 22
22-2881 22
22-2882 22
22-2883 22
22-2884 22
22-2885 22
22-2886 22
22-2887 22
22-2888 22
22-2889 22
22-2890 22
22-2891 22
22-2892 22
22-2893 22
22-2894 22
22-2895 22
22-2896 22
22-2897 22
22-2898 22
22-2899 22
22-2900 22
22-2901 22
22-2902 22
22-2903 22
22-2904 22
22-2905 22
22-2906 22
22-2907 22
22-2908 22
22-2909 22
22-2910 22
22-2911 22
22-2912 22
22-2913 22
22-2914 22
22-2915 22
22-2916 22
22-2917 22
22-2918 22
22-2919 22
22-2920 22
22-2921 22
22-2922 22
22-2923 22
22-2924 22
22-2925 22
22-2926 22
22-2927 22
22-2928 22
22-2929 22
22-2930 22
22-2931 22
22-2932 22
22-2933 22
22-2934 22
22-2935 22
22-2936 22
22-2937 22
22-2938 22
22-2939 22
22-2940 22
22-2941 22
22-2942 22
22-2943 22
22-2944 22
22-2945 22
22-2946 22
22-2947 22
22-2948 22
22-2949 22
22-2950 22
22-2951 22
22-2952 22
22-2953 22
22-2954 22
22-2955 22
22-2956 22
22-2957 22
22-2958 22
22-2959 22
22-2960 22
22-2961 22
22-2962 22
22-2963 22
22-2964 22
22-2965 22
22-2966 22
22-2967 22
22-2968 22
22-2969 22
22-2970 22
22-2971 22
22-2972 22
22-2973 22
22-2974 22
22-2975 22
22-2976 22
22-2977 22
22-2978 22
22-2979 22
22-2980 22
22-2981 22
22-2982 22
22-2983 22
22-2984 22
22-2985 22
22-2986 22
22-2987 22
22-2988 22
22-2989 22
22-2990 22
22-2991 22
22-2992 22
22-2993 22
22-2994 22
22-2995 22
22-2996 22
22-2997 22
22-2998 22
22-2999 22
22-3000 22
22-3001 22
22-3002 22
22-3003 22
22-3004 22
22-3005 22
22-3006 22
22-3007 22
22-3008 22
22-3009 22
22-3010 22
22-3011 22
22-3012 22
22-3013 22
22-3014 22
22-3015 22
22-3016 22
22-3017 22
22-3018 22
22-3019 22
22-3020 22
22-3021 22
22-3022 22
22-3023 22
22-3024 22
22-3025 22
22-3026 22
22-3027 22
22-3028 22
22-3029 22
22-3030 22
22-3031 22
22-3032 22
22-3033 22
22-3034 22
22-3035 22
22-3036 22
22-3037 22
22-3038 22
22-3039 22
22-3040 22
22-3041 22
22-3042 22
22-3043 22
22-3044 22
22-3045 22
22-3046 22
22-3047 22
22-3048 22
22-3049 22
22-3050 22
22-3051 22
22-3052 22
22-3053 22
22-3054 22
22-3055 22
22-3056 22
22-3057 22
22-3058 22
22-3059 22
22-3060 22
22-3061 22
22-3062 22
22-3063 22
22-3064 22
22-3065 22
22-3066 22
22-3067 22
22-3068 22
22-3069 22
22-3070 22
22-3071 22
22-3072 22
22-3073 22
22-3074 22
22-3075 22
22-3076 22
22-3077 22
22-3078 22
22-3079 22
22-3080 22
22-3081 22
22-3082 22
22-3083 22
22-3084 22
22-3085 22
22-3086 22
22-3087 22
22-3088 22
22-3089 22
22-3090 22
22-3091 22
22-3092 22
22-3093 22
22-3094 22
22-3095 22
22-3096 22
22-3097 22
22-3098 22
22-3099 22
22-3100 22
22-3101 22
22-3102 22
22-3103 22
22-3104 22
22-3105 22
22-3106 22
22-3107 22
22-3108 22
22-3109 22
22-3110 22
22-3111 22
22-3112 22
22-3113 22
22-3114 22
22-3115 22
22-3116 22
22-3117 22
22-3118 22
22-3119 22
26-3287 26
26-3288 26
26-3289 26
26-3290 26
26-3291 26
26-3292 26
26-3293 26
26-3294 26
26-3295 26
26-3296 26
26-3297 26
26-3298 26
26-3299 26
26-3300 26
26-3301 26
26-3302 26
26-3303 26
26-3304 26
26-3305 26
26-3306 26
26-3307 26
26-3308 26
26-3309 26
26-3310 26
26-3311 26
26-3312 26
26-3313 26
26-3314 26
26-3315 26
26-3316 26
26-3317 26
26-3318 26
26-3319 26
26-3320 26
26-3321 26
26-3322 26
26-3323 26
26-3324 26
26-3325 26
26-3326 26
26-3327 26
26-3328 26
26-3329 26
26-3330 26
26-3331 26
26-3332 26
26-3333 26
26-3334 26
26-3335 26
26-3336 26
26-3337 26
26-3338 26
26-3339 26
26-3340 26
26-3341 26
26-3342 26
26-3343 26
26-3344 26
26-3345 26
26-3346 26
26-3347 26
26-3348 26
26-3349 26
26-3350 26
26-3351 26
26-3352 26
26-3353 26
26-3354 26
26-3355 26
26-3356 26
26-3357 26
26-3358 26
26-3359 26
26-3360 26
26-3361 26
26-3362 26
26-3363 26
26-3364 26
26-3365 26
26-3366 26
26-3367 26
26-3368 26
26-3369 26
26-3370 26
26-3371 26
26-3372 26
26-3373 26
26-3374 26
26-3375 26
26-3376 26
26-3377 26
26-3378 26
26-3379 26
26-3380 26
26-3381 26
26-3382 26
26-3383 26
26-3384 26
26-3385 26
27-3386 27
3-293 3
3-365 3
3-366 3
38-4231 38
38-4232 38
38-4233 38
38-4234 38
38-4235 38
38-4236 38
38-4237 38
38-4238 38
38-4239 38
38-4240 38
38-4241 38
38-4242 38
38-4243 38
38-4244 38
38-4245 38
38-4246 38
38-4247 38
38-4248 38
38-4249 38
38-4250 38
38-4251 38
38-4252 38
38-4253 38
38-4254 38
38-4255 38
38-4256 38
38-4257 38
38-4258 38
38-4259 38
38-4260 38
38-4261 38
38-4262 38
38-4263 38
38-4264 38
38-4265 38
38-4266 38
38-4267 38
38-4268 38
38-4269 38
38-4270 38
38-4271 38
38-4272 38
38-4273 38
38-4274 38
38-4275 38
38-4276 38
38-4277 38
38-4278 38
38-4279 38
39-4280 39
39-4281 39
39-4282 39
39-4283 39
39-4284 39
39-4285 39
39-4286 39
39-4287 39
39-4288 39
39-4289 39
39-4290 39
39-4291 39
39-4292 39
39-4293 39
39-4294 39
39-4295 39
39-4296 39
39-4297 39
39-4298 39
39-4299 39
39-4300 39
39-4301 39
39-4302 39
39-4303 39
39-4304 39
39-4305 39
39-4306 39
39-4307 39
39-4308 39
39-4309 39
39-4310 39
39-4311 39
39-4312 39
39-4313 39
39-4314 39
39-4315 39
39-4316 39
39-4317 39
39-4318 39
39-4319 39
39-4320 39
39-4321 39
39-4322 39
39-4323 39
39-4324 39
39-4325 39
39-4326 39
39-4327 39
39-4328 39
39-4329 39
39-4330 39
39-4331 39
39-4332 39
39-4333 39
39-4334 39
39-4335 39
39-4336 39
39-4337 39
39-4338 39
39-4339 39
39-4340 39
39-4341 39
39-4342 39
39-4343 39
39-4344 39
39-4345 39
39-4346 39
39-4347 39
39-4348 39
39-4349 39
39-4350 39
39-4351 39
39-4352 39
39-4353 39
39-4354 39
39-4355 39
39-4356 39
39-4357 39
39-4358 39
39-4359 39
39-4360 39
39-4361 39
39-4362 39
39-4363 39
39-4364 39
39-4365 39
39-4366 39
39-4367 39
39-4368 39
39-4369 39
39-4370 39
39-4371 39
39-4372 39
39-4373 39
39-4374 39
39-4375 39
39-4376 39
39-4377 39
39-4378 39
39-4379 39
39-4380 39
39-4381 39
39-4382 39
39-4383 39
39-4384 39
39-4385 39
39-4386 39
39-4387 39
39-4388 39
39-4389 39
39-4390 39
39-4391 39
39-4392 39
39-4393 39
39-4394 39
39-4395 39
39-4396 39
39-4397 39
39-4398 39
39-4399 39
39-4400 39
39-4401 39
39-4402 39
39-4403 39
39-4404 39
39-4405 39
39-4406 39
39-4407 39
39-4408 39
39-4409 39
39-4410 39
39-4411 39
39-4412 39
39-4413 39
39-4414 39
39-4415 39
39-4416 39
39-4417 39
39-4418 39
39-4419 39
39-4420 39
39-4421 39
39-4422 39
39-4423 39
39-4424 39
39-4425 39
39-4426 39
39-4427 39
39-4428 39
39-4429 39
39-4430 39
39-4431 39
39-4432 39
39-4433 39
39-4434 39
39-4435 39
39-4436 39
39-4437 39
39-4438 39
39-4439 39
39-4440 39
39-4441 39
39-4442 39
39-4443 39
39-4444 39
39-4445 39
39-4446 39
39-4447 39
39-4448 39
39-4449 39
39-4450 39
39-4451 39
39-4452 39
39-4453 39
39-4454 39
39-4455 39
39-4456 39
39-4457 39
39-4458 39
39-4459 39
39-4460 39
39-4461 39
39-4462 39
39-4463 39
39-4464 39
39-4465 39
39-4466 39
39-4467 39
39-4468 39
39-4469 39
39-4470 39
39-4471 39
39-4472 39
39-4473 39
39-4474 39
39-4475 39
39-4476 39
39-4477 39
39-4478 39
39-4479 39
39-4480 39
39-4481 39
39-4482 39
39-4483 39
39-4484 39
39-4485 39
39-4486 39
39-4487 39
39-4488 39
39-4489 39
39-4490 39
39-4491 39
39-4492 39
39-4493 39
39-4494 39
39-4495 39
39-4496 39
39-4497 39
39-4498 39
39-4499 39
39-4500 39
39-4501 39
39-4502 39
39-4503 39
39-4504 39
39-4505 39
39-4506 39
39-4507 39
39-4508 39
39-4509 39
39-4510 39
39-4511 39
39-4512 39
39-4513 39
39-4514 39
39-4515 39
39-4516 39
39-4517 39
39-4518 39
39-4519 39
39-4520 39
39-4521 39
39-4522 39
39-4523 39
39-4524 39
39-4525 39
39-4526 39
39-4527 39
39-4528 39
39-4529 39
39-4530 39
39-4531 39
39-4532 39
39-4533 39
39-4534 39
39-4535 39
45-5154 45
45-5155 45
45-5156 45
45-5157 45
45-5158 45
45-5159 45
45-5160 45
45-5161 45
45-5162 45
45-5163 45
45-5164 45
45-5165 45
45-5166 45
45-5167 45
48-5376 48
48-5377 48
48-5378 48
48-5379 48
48-5380 48
48-5381 48
48-5382 48
48-5383 48
48-5384 48
48-5385 48
48-5386 48
48-5387 48
48-5388 48
48-5389 48
48-5390 48
48-5391 48
48-5392 48
48-5393 48
48-5394 48
48-5395 48
48-5396 48
48-5398 48
51-5530 51
51-5531 51
51-5532 51
51-5533 51
51-5534 51
51-5535 51
51-5536 51
51-5537 51
51-5538 51
51-5539 51
51-5540 51
51-5541 51
51-5542 51
51-5543 51
51-5544 51
51-5545 51
51-5546 51
51-5547 51
51-5548 51
51-5549 51
51-5550 51
51-5551 51
51-5552 51
51-5553 51
51-5554 51
51-5555 51
51-5556 51
51-5557 51
51-5558 51
51-5559 51
51-5560 51
51-5561 51
51-5562 51
51-5563 51
51-5564 51
51-5565 51
51-5566 51
51-5567 51
51-5568 51
51-5569 51
51-5570 51
51-5571 51
51-5572 51
51-5573 51
51-5574 51
51-5575 51
51-5576 51
51-5577 51
51-5578 51
51-5579 51
51-5580 51
51-5581 51
51-5582 51
51-5583 51
51-5584 51
51-5585 51
51-5586 51
51-5587 51
51-5588 51
51-5589 51
51-5590 51
51-5591 51
51-5592 51
51-5593 51
51-5594 51
51-5595 51
51-5596 51
51-5597 51
51-5598 51
51-5599 51
51-5600 51
51-5601 51
51-5602 51
51-5603 51
51-5604 51
51-5605 51
51-5606 51
51-5607 51
51-5608 51
51-5609 51
51-5610 51
51-5611 51
51-5612 51
51-5613 51
51-5614 51
51-5615 51
51-5616 51
51-5617 51
51-5618 51
51-5619 51
51-5620 51
51-5621 51
51-5622 51
51-5623 51
51-5624 51
51-5625 51
51-5626 51
51-5627 51
51-5628 51
51-5629 51
51-5630 51
51-5631 51
51-5632 51
51-5633 51
51-5634 51
51-5635 51
51-5636 51
51-5637 51
51-5638 51
51-5639 51
51-5640 51
51-5641 51
51-5642 51
51-5643 51
51-5644 51
51-5645 51
51-5646 51
51-5647 51
51-5648 51
51-5649 51
51-5650 51
51-5651 51
51-5652 51
51-5653 51
51-5654 51
51-5655 51
51-5656 51
51-5657 51
51-5658 51
51-5659 51
51-5660 51
51-5661 51
51-5662 51
51-5663 51
51-5664 51
51-5665 51
51-5666 51
51-5667 51
51-5668 51
51-5669 51
51-5670 51
51-5671 51
51-5672 51
51-5673 51
51-5674 51
51-5675 51
51-5676 51
51-5677 51
51-5678 51
51-5679 51
51-5680 51
51-5681 51
51-5682 51
51-5683 51
51-5684 51
51-5685 51
51-5686 51
51-5687 51
51-5688 51
51-5689 51
51-5690 51
51-5691 51
51-5692 51
51-5693 51
51-5694 51
51-5695 51
51-5696 51
51-5697 51
51-5698 51
51-5699 51
51-5700 51
51-5701 51
51-5702 51
51-5703 51
51-5704 51
51-5705 51
51-5706 51
51-5707 51
51-5708 51
51-5709 51
51-5710 51
51-5711 51
51-5712 51
51-5713 51
51-5714 51
51-5715 51
51-5716 51
51-5717 51
51-5718 51
51-5719 51
51-5720 51
51-5721 51
51-5722 51
51-5723 51
51-5724 51
51-5725 51
51-5726 51
51-5727 51
51-5728 51
51-5729 51
51-5730 51
51-5731 51
51-5732 51
51-5733 51
51-5734 51
51-5735 51
51-5736 51
51-5737 51
51-5738 51
51-5739 51
51-5740 51
51-5741 51
51-5742 51
51-5743 51
51-5744 51
51-5745 51
51-5746 51
51-5747 51
51-5748 51
51-5749 51
51-5750 51
51-5751 51
51-5752 51
51-5753 51
51-5754 51
51-5755 51
51-5756 51
51-5757 51
51-5758 51
51-5759 51
51-5760 51
51-5761 51
51-5762 51
51-5763 51
51-5764 51
51-5765 51
51-5766 51
51-5767 51
51-5768 51
51-5769 51
51-5770 51
51-5771 51
51-5772 51
51-5773 51
51-5774 51
51-5775 51
51-5776 51
51-5777 51
51-5778 51
51-5779 51
51-5780 51
51-5781 51
51-5782 51
51-5783 51
51-5784 51
51-5785 51
51-5786 51
51-5787 51
51-5788 51
51-5789 51
51-5790 51
51-5791 51
51-5792 51
51-5793 51
51-5794 51
51-5795 51
51-5796 51
56-5874 56
56-5875 56
56-5876 56
56-5877 56
56-5878 56
56-5879 56
56-5880 56
56-5881 56
56-5882 56
56-5883 56
56-5884 56
56-5885 56
56-5886 56
56-5887 56
56-5888 56
56-5889 56
56-5890 56
56-5891 56
56-5892 56
56-5893 56
56-5894 56
56-5895 56
56-5896 56
56-5897 56
56-5898 56
56-5899 56
56-5900 56
56-5901 56
56-5902 56
56-5903 56
56-5904 56
56-5905 56
56-5906 56
56-5907 56
56-5908 56
56-5909 56
56-5910 56
56-5911 56
56-5912 56
56-5913 56
56-5914 56
56-5915 56
56-5916 56
56-5917 56
56-5918 56
56-5919 56
56-5920 56
56-5921 56
56-5922 56
56-5923 56
56-5924 56
56-5925 56
56-5926 56
56-5927 56
56-5928 56
56-5929 56
56-5930 56
56-5931 56
56-5932 56
56-5933 56
56-5934 56
56-5935 56
56-5936 56
56-5937 56
56-5938 56
56-5939 56
56-5940 56
56-5941 56
56-5942 56
56-5943 56
56-5944 56
56-5945 56
56-5946 56
56-5947 56
56-5948 56
56-5949 56
56-5950 56
56-5951 56
56-5952 56
56-5953 56
56-5954 56
56-5955 56
56-5956 56
56-5957 56
56-5958 56
56-5959 56
56-5960 56
56-5961 56
56-5962 56
56-5963 56
56-5964 56
56-5965 56
56-5966 56
56-5967 56
56-5968 56
56-5969 56
56-5970 56
56-5971 56
56-5972 56
58-6062 58
59-6063 59
59-6064 59
59-6065 59
59-6066 59
59-6067 59
59-6068 59
59-6069 59
59-6070 59
59-6071 59
59-6072 59
59-6073 59
59-6074 59
59-6075 59
59-6076 59
59-6077 59
59-6078 59
59-6079 59
59-6080 59
59-6081 59
59-6082 59
59-6083 59
59-6084 59
59-6085 59
59-6086 59
59-6087 59
59-6088 59
59-6089 59
59-6090 59
59-6091 59
59-6092 59
59-6093 59
59-6094 59
59-6095 59
59-6096 59
59-6097 59
59-6098 59
59-6099 59
59-6100 59
59-6101 59
59-6102 59
59-6104 59
60-6103 60
60-6105 60
60-6106 60
60-6107 60
60-6108 60
60-6109 60
60-6110 60
60-6111 60
60-6112 60
60-6113 60
60-6114 60
60-6115 60
60-6116 60
60-6117 60
60-6118 60
60-6119 60
60-6120 60
60-6121 60
60-6122 60
60-6123 60
60-6124 60
60-6125 60
60-6126 60
60-6127 60
60-6128 60
60-6129 60
60-6130 60
60-6131 60
60-6132 60
60-6133 60
60-6134 60
60-6135 60
60-6136 60
60-6137 60
60-6138 60
60-6139 60
60-6140 60
60-6141 60
60-6142 60
60-6143 60
60-6144 60
60-6145 60
60-6146 60
60-6147 60
60-6148 60
60-6149 60
60-6150 60
60-6151 60
60-6152 60
60-6153 60
60-6154 60
60-6155 60
60-6156 60
60-6157 60
60-6158 60
60-6159 60
60-6160 60
60-6161 60
60-6162 60
60-6163 60
60-6164 60
60-6165 60
60-6166 60
60-6167 60
60-6168 60
60-6169 60
60-6170 60
60-6171 60
60-6172 60
60-6173 60
60-6174 60
60-6190 60
61-6175 61
61-6176 61
61-6177 61
61-6178 61
61-6179 61
61-6180 61
61-6181 61
61-6182 61
61-6183 61
61-6184 61
61-6185 61
61-6186 61
61-6187 61
61-6188 61
61-6189 61
61-6191 61
61-6192 61
61-6193 61
61-6194 61
61-6195 61
61-6196 61
61-6197 61
61-6198 61
61-6199 61
61-6200 61
61-6201 61
61-6202 61
61-6203 61
61-6204 61
61-6205 61
61-6206 61
61-6207 61
61-6208 61
61-6209 61
61-6210 61
61-6211 61
61-6212 61
61-6213 61
61-6214 61
61-6215 61
61-6216 61
61-6217 61
61-6218 61
61-6219 61
61-6220 61
61-6221 61
61-6222 61
61-6223 61
61-6224 61
61-6225 61
61-6226 61
61-6227 61
61-6228 61
61-6229 61
61-6230 61
61-6231 61
61-6232 61
61-6233 61
61-6234 61
61-6235 61
61-6236 61
61-6237 61
61-6238 61
61-6239 61
61-6240 61
61-6241 61
61-6242 61
61-6243 61
61-6244 61
61-6245 61
61-6246 61
61-6247 61
61-6248 61
61-6249 61
61-6250 61
61-6251 61
61-6252 61
61-6253 61
61-6254 61
61-6255 61
61-6256 61
61-6257 61
61-6258 61
61-6259 61
61-6260 61
61-6261 61
61-6262 61
61-6263 61
61-6264 61
61-6265 61
61-6266 61
61-6267 61
61-6268 61
61-6269 61
61-6270 61
62-6271 62
62-6272 62
62-6273 62
62-6274 62
62-6275 62
62-6276 62
62-6277 62
62-6278 62
62-6279 62
62-6280 62
62-6281 62
62-6282 62
62-6283 62
62-6284 62
62-6285 62
62-6286 62
62-6287 62
62-6288 62
62-6289 62
62-6290 62
62-6291 62
62-6292 62
62-6293 62
62-6294 62
62-6295 62
62-6296 62
62-6297 62
62-6298 62
62-6299 62
62-6300 62
62-6301 62
62-6302 62
62-6303 62
62-6304 62
62-6305 62
62-6306 62
62-6307 62
62-6308 62
62-6309 62
62-6310 62
62-6311 62
62-6312 62
62-6313 62
62-6314 62
62-6315 62
62-6316 62
62-6317 62
62-6318 62
62-6319 62
62-6320 62
62-6321 62
62-6322 62
62-6323 62
62-6324 62
62-6325 62
62-6326 62
62-6327 62
62-6328 62
62-6329 62
62-6330 62
62-6331 62
62-6332 62
62-6333 62
62-6334 62
62-6335 62
62-6336 62
62-6337 62
62-6338 62
62-6339 62
62-6340 62
62-6341 62
62-6342 62
62-6343 62
62-6344 62
62-6345 62
62-6346 62
62-6347 62
62-6348 62
62-6349 62
62-6350 62
62-6351 62
62-6352 62
62-6353 62
62-6354 62
62-6355 62
62-6356 62
62-6357 62
62-6358 62
62-6359 62
62-6360 62
62-6361 62
62-6362 62
62-6363 62
62-6364 62
62-6365 62
62-6366 62
62-6367 62
62-6368 62
62-6369 62
62-6370 62
62-6371 62
62-6372 62
62-6373 62
62-6374 62
62-6375 62
62-6376 62
62-6377 62
62-6378 62
62-6379 62
62-6380 62
62-6381 62
62-6382 62
62-6383 62
62-6384 62
62-6385 62
62-6386 62
62-6387 62
62-6388 62
62-6389 62
62-6390 62
62-6391 62
62-6392 62
62-6393 62
62-6394 62
62-6395 62
62-6396 62
62-6397 62
62-6398 62
62-6399 62
62-6400 62
62-6401 62
62-6402 62
62-6403 62
62-6404 62
62-6405 62
62-6406 62
62-6407 62
62-6408 62
62-6409 62
62-6410 62
62-6411 62
62-6412 62
62-6413 62
62-6414 62
62-6415 62
62-6416 62
64-6616 64
64-6617 64
64-6618 64
64-6619 64
64-6620 64
64-6621 64
64-6622 64
64-6623 64
64-6624 64
64-6625 64
64-6626 64
64-6627 64
64-6628 64
64-6629 64
64-6630 64
64-6631 64
64-6632 64
64-6633 64
64-6634 64
64-6635 64
64-6636 64
64-6637 64
64-6638 64
64-6639 64
64-6640 64
64-6641 64
64-6642 64
64-6643 64
64-6644 64
64-6645 64
64-6646 64
64-6647 64
64-6648 64
64-6649 64
64-6650 64
64-6651 64
64-6652 64
64-6653 64
64-6654 64
64-6655 64
64-6656 64
64-6657 64
64-6658 64
64-6659 64
64-6660 64
64-6661 64
64-6662 64
64-6663 64
64-6664 64
64-6665 64
64-6666 64
64-6667 64
64-6668 64
64-6669 64
64-6670 64
64-6671 64
64-6672 64
64-6673 64
64-6674 64
64-6675 64
68-7042 68
68-7043 68
68-7044 68
68-7045 68
68-7046 68
68-7047 68
68-7048 68
68-7049 68
68-7050 68
68-7051 68
75-7595 75
75-7596 75
75-7598 75
75-7599 75
75-7600 75
75-7601 75
75-7602 75
75-7603 75
75-7604 75
75-7605 75
75-7606 75
75-7607 75
75-7608 75
75-7609 75
75-7610 75
75-7611 75
75-7612 75
75-7613 75
75-7614 75
75-7615 75
75-7616 75
75-7617 75
75-7618 75
75-7619 75
75-7620 75
75-7621 75
75-7622 75
75-7623 75
75-7624 75
75-7625 75
75-7626 75
75-7627 75
75-7628 75
75-7629 75
75-7630 75
75-7631 75
75-7632 75
75-7633 75
75-7634 75
75-7635 75
75-7636 75
75-7637 75
75-7638 75
75-7639 75
75-7640 75
75-7641 75
75-7642 75
75-7643 75
75-7644 75
75-7645 75
75-7646 75
75-7647 75
75-7648 75
75-7649 75
75-7650 75
75-7651 75
75-7652 75
75-7653 75
75-7654 75
75-7655 75
75-7656 75
75-7657 75
75-7658 75
75-7659 75
75-7660 75
75-7661 75
75-7662 75
75-7663 75
75-7664 75
75-7665 75
75-7666 75
75-7667 75
75-7668 75
75-7669 75
75-7670 75
75-7671 75
75-7672 75
75-7673 75
75-7674 75
75-7675 75
75-7676 75
75-7677 75
75-7678 75
75-7679 75
75-7680 75
75-7681 75
75-7682 75
75-7683 75
75-7684 75
75-7685 75
75-7686 75
75-7687 75
75-7688 75
75-7689 75
75-7690 75
75-7691 75
75-7692 75
75-7693 75
75-7694 75
75-7695 75
75-7696 75
75-7697 75
75-7698 75
75-7699 75
75-7700 75
75-7701 75
75-7702 75
75-7703 75
75-7704 75
75-7705 75
75-7706 75
75-7707 75
75-7708 75
75-7709 75
75-7710 75
75-7711 75
75-7712 75
75-7713 75
75-7714 75
75-7715 75
75-7716 75
75-7717 75
75-7718 75
75-7719 75
75-7720 75
75-7721 75
75-7722 75
75-7723 75
75-7724 75
75-7725 75
75-7726 75
75-7727 75
75-7728 75
75-7729 75
75-7730 75
75-7731 75
75-7732 75
75-7733 75
75-7734 75
75-7735 75
75-7736 75
75-7737 75
75-7738 75
75-7739 75
75-7740 75
75-7741 75
75-7742 75
75-7743 75
75-7744 75
75-7745 75
75-7746 75
75-7747 75
75-7748 75
75-7749 75
75-7750 75
75-7751 75
75-7752 75
75-7753 75
75-7754 75
75-7755 75
75-7756 75
75-7757 75
75-7758 75
75-7759 75
75-7760 75
75-7761 75
75-7762 75
75-7763 75
75-7764 75
75-7765 75
75-7766 75
75-7767 75
75-7768 75
75-7769 75
75-7770 75
75-7771 75
75-7772 75
75-7773 75
75-7774 75
75-7775 75
75-7776 75
75-7777 75
75-7778 75
75-7779 75
75-7780 75
75-7781 75
75-7782 75
75-7783 75
75-7784 75
75-7785 75
75-7786 75
75-7787 75
75-7788 75
75-7789 75
75-7790 75
75-7791 75
75-7792 75
75-7793 75
75-7794 75
75-7795 75
75-7796 75
75-7797 75
75-7798 75
75-7799 75
75-7800 75
75-7801 75
75-7802 75
75-7803 75
75-7804 75
75-7805 75
75-7806 75
75-7807 75
75-7808 75
75-7809 75
75-7810 75
75-7811 75
75-7812 75
75-7813 75
75-7814 75
75-7815 75
75-7816 75
75-7817 75
75-7818 75
75-7819 75
75-7820 75
75-7821 75
75-7822 75
75-7823 75
75-7824 75
75-7825 75
75-7826 75
75-7827 75
75-7828 75
75-7829 75
75-7830 75
75-7831 75
75-7832 75
75-7833 75
75-7834 75
75-7835 75
75-7836 75
75-7837 75
75-7838 75
75-7839 75
75-7840 75
75-7841 75
75-7842 75
75-7843 75
75-7844 75
75-7845 75
75-7846 75
75-7847 75
75-7848 75
75-7849 75
75-7850 75
75-7851 75
75-7852 75
75-7853 75
75-7854 75
75-7855 75
76-7856 76
76-7857 76
78-7860 78
78-7861 78
78-7862 78
78-7863 78
78-7864 78
78-7865 78
78-7866 78
78-7867 78
78-7868 78
78-7869 78
78-7870 78
78-7871 78
78-7872 78
78-7873 78
78-7874 78
78-7875 78
78-7876 78
78-7877 78
78-7878 78
78-7879 78
78-7880 78
78-7881 78
78-7882 78
78-7883 78
78-7884 78
78-7885 78
78-7886 78
78-7887 78
78-7888 78
78-7889 78
78-7890 78
78-7891 78
78-7892 78
78-7893 78
78-7894 78
78-7895 78
78-7896 78
78-7897 78
78-7898 78
78-7899 78
78-7900 78
78-7901 78
78-7902 78
78-7903 78
78-7904 78
78-7905 78
78-7906 78
78-7907 78
78-7908 78
78-7909 78
78-7910 78
78-7911 78
78-7912 78
78-7913 78
78-7914 78
78-7915 78
78-7916 78
78-7917 78
78-7918 78
78-7919 78
78-7920 78
78-7921 78
78-7922 78
78-7923 78
78-7924 78
78-7925 78
78-7926 78
78-7927 78
78-7928 78
78-7929 78
78-7930 78
78-7931 78
78-7932 78
78-7933 78
78-7934 78
78-7935 78
78-7936 78
78-7937 78
78-7938 78
78-7939 78
78-7940 78
78-7941 78
78-7942 78
78-7943 78
78-7944 78
78-7945 78
78-7946 78
78-7947 78
78-7948 78
78-7949 78
9-1525 9
9-1526 9
9-1527 9
9-1528 9
9-1529 9
9-1530 9
9-1531 9
9-1532 9
9-1533 9
9-1534 9
9-1535 9
9-1536 9
9-1537 9
9-1538 9
9-1539 9
9-1540 9
9-1541 9
9-1542 9
9-1543 9
9-1544 9
9-1545 9
9-1546 9
9-1547 9
9-1548 9
9-1549 9
9-1550 9
9-1551 9
9-1552 9
9-1553 9
9-1554 9
9-1555 9
9-1556 9
9-1557 9
9-1558 9
93-9678 93
93-9679 93
93-9680 93
93-9681 93
93-9682 93
93-9683 93
93-9684 93
93-9685 93
93-9686 93
93-9687 93
93-9688 93
93-9689 93
93-9690 93
93-9691 93
93-9692 93
93-9693 93
93-9694 93
93-9695 93
93-9696 93
93-9697 93
93-9698 93
93-9699 93
93-9700 93
93-9701 93
93-9702 93
93-9703 93
93-9704 93
93-9705 93
93-9706 93
93-9707 93
93-9708 93
93-9709 93
93-9710 93
93-9711 93
93-9712 93
93-9713 93
93-9714 93
93-9715 93
93-9716 93
93-9717 93
93-9718 93
93-9719 93
93-9720 93
93-9721 93
93-9722 93
93-9723 93
93-9724 93
93-9725 93
93-9726 93
94-9727 94
94-9728 94
94-9729 94
94-9730 94
94-9731 94
94-9732 94
94-9733 94
94-9734 94
94-9735 94
94-9736 94
94-9737 94
94-9738 94
94-9739 94
94-9740 94
94-9741 94
94-9742 94
94-9743 94
94-9744 94
94-9745 94
94-9746 94
94-9747 94
94-9748 94
94-9749 94
94-9750 94
94-9751 94
94-9752 94
94-9753 94
94-9754 94
94-9755 94
94-9756 94
94-9757 94
94-9758 94
94-9759 94
94-9760 94
94-9761 94
94-9762 94
94-9763 94
94-9764 94
94-9765 94
94-9766 94
94-9767 94
94-9768 94
94-9769 94
94-9770 94
94-9771 94
94-9772 94
94-9773 94
94-9774 94
94-9775 94
94-9776 94
94-9777 94
94-9778 94
94-9779 94
94-9780 94
94-9781 94
94-9782 94
94-9783 94
94-9784 94
94-9785 94
97-9969 97
97-9971 97
97-9972 97
97-9973 97
97-9974 97
97-9975 97
97-9976 97
97-9977 97
97-9978 97
97-9979 97
97-9980 97
97-9981 97
